DIMENSION: 10
EDGE_WEIGHT_TYPE: EXPLICIT
EDGE_WEIGHT_FORMAT: FULL_MATRIX
EDGE_WEIGHT_SECTION:
32767 46 88 32767 32767 26 32767 32767 32767 32767 
46 32767 32767 66 92 39 12 32767 33 12 
88 32767 32767 32767 32767 32767 32767 49 32767 32767 
32767 66 32767 32767 32767 32767 98 86 32767 32767 
32767 92 32767 32767 32767 32767 32767 32767 32767 32767 
26 39 32767 32767 32767 32767 98 88 32767 32767 
32767 12 32767 98 32767 98 32767 32767 32767 32767 
32767 32767 49 86 32767 88 32767 32767 32767 32767 
32767 33 32767 32767 32767 32767 32767 32767 32767 32767 
32767 12 32767 32767 32767 32767 32767 32767 32767 32767 
EOF